<instance format="XCSP3" type="COP">
  <variables>
    <array id="s" note="s[i] is the starting time of the ith task" size="[25]"> 0..69 </array>
    <array id="w" note="w[j,i] is 1 if the jth worker is assigned to the ith task" size="[2][25]"> 0 1 </array>
    <var id="z" note="the project duration"> 0..69 </var>
  </variables>
  <constraints>
    <group note="respecting precedences">
      <intension> le(add(%0,%1),%2) </intension>
      <args> s[0] 4 s[12] </args>
      <args> s[0] 4 s[18] </args>
      <args> s[0] 4 s[21] </args>
      <args> s[0] 4 s[22] </args>
      <args> s[1] 5 s[13] </args>
      <args> s[1] 5 s[15] </args>
      <args> s[1] 5 s[19] </args>
      <args> s[2] 4 s[12] </args>
      <args> s[2] 4 s[20] </args>
      <args> s[2] 4 s[22] </args>
      <args> s[3] 4 s[11] </args>
      <args> s[3] 4 s[19] </args>
      <args> s[3] 4 s[24] </args>
      <args> s[4] 2 s[17] </args>
      <args> s[5] 3 s[8] </args>
      <args> s[5] 3 s[9] </args>
      <args> s[5] 3 s[24] </args>
      <args> s[6] 5 s[13] </args>
      <args> s[6] 5 s[14] </args>
      <args> s[6] 5 s[20] </args>
      <args> s[6] 5 s[23] </args>
      <args> s[7] 2 s[8] </args>
      <args> s[7] 2 s[21] </args>
      <args> s[7] 2 s[23] </args>
      <args> s[8] 2 s[14] </args>
      <args> s[9] 1 s[11] </args>
      <args> s[9] 1 s[14] </args>
      <args> s[10] 3 s[11] </args>
      <args> s[10] 3 s[12] </args>
      <args> s[11] 3 s[12] </args>
      <args> s[11] 3 s[15] </args>
      <args> s[12] 4 s[24] </args>
      <args> s[13] 3 s[16] </args>
      <args> s[13] 3 s[18] </args>
      <args> s[14] 1 s[19] </args>
      <args> s[15] 4 s[23] </args>
      <args> s[16] 3 s[23] </args>
      <args> s[16] 3 s[24] </args>
      <args> s[20] 1 s[22] </args>
      <args> s[20] 1 s[23] </args>
      <args> s[21] 1 s[22] </args>
      <args> s[22] 2 s[24] </args>
    </group>
    <group>
      <intension> ge(%0,1) </intension>
      <args> w[0][0] </args>
      <args> w[0][1] </args>
      <args> w[0][2] </args>
      <args> w[0][5] </args>
      <args> w[0][10] </args>
      <args> w[0][11] </args>
      <args> w[0][14] </args>
      <args> w[0][15] </args>
      <args> w[0][17] </args>
      <args> w[0][18] </args>
      <args> w[0][21] </args>
    </group>
    <group>
      <sum>
        <list> %0 %1 </list>
        <condition> (ge,1) </condition>
      </sum>
      <args> w[0][0] w[1][0] </args>
      <args> w[0][2] w[1][2] </args>
      <args> w[0][3] w[1][3] </args>
      <args> w[0][4] w[1][4] </args>
      <args> w[0][6] w[1][6] </args>
      <args> w[0][7] w[1][7] </args>
      <args> w[0][8] w[1][8] </args>
      <args> w[0][9] w[1][9] </args>
      <args> w[0][12] w[1][12] </args>
      <args> w[0][13] w[1][13] </args>
      <args> w[0][16] w[1][16] </args>
      <args> w[0][19] w[1][19] </args>
      <args> w[0][20] w[1][20] </args>
      <args> w[0][22] w[1][22] </args>
      <args> w[0][23] w[1][23] </args>
      <args> w[0][24] w[1][24] </args>
    </group>
    <instantiation>
      <list> w[1][1] w[1][5] w[1][10..11] w[1][14..15] w[1][17..18] w[1][21] </list>
      <values> 0x9 </values>
    </instantiation>
    <block class="redundant-constraints" note="non-overlapping constraints for the workers">
      <cumulative>
        <origins> s[] </origins>
        <lengths> 4 5 4 4 2 3 5 2 2 1 3 3 4 3 1 4 3 1 1 3 1 1 2 2 5 </lengths>
        <heights> w[0][] </heights>
        <condition> (le,1) </condition>
      </cumulative>
      <cumulative>
        <origins> s[0] s[2..4] s[6..9] s[12..13] s[16] s[19..20] s[22..24] </origins>
        <lengths> 4x3 2 5 2 2 1 4 3x3 1 2 2 5 </lengths>
        <heights> w[1][0] w[1][2..4] w[1][6..9] w[1][12..13] w[1][16] w[1][19..20] w[1][22..24] </heights>
        <condition> (le,1) </condition>
      </cumulative>
    </block>
    <group>
      <intension> or(le(add(%0,%1),%2),le(add(%2,%3),%0)) </intension>
      <args> s[0] 4 s[1] 5 </args>
      <args> s[0] 4 s[2] 4 </args>
      <args> s[0] 4 s[5] 3 </args>
      <args> s[0] 4 s[10] 3 </args>
      <args> s[0] 4 s[11] 3 </args>
      <args> s[0] 4 s[14] 1 </args>
      <args> s[0] 4 s[15] 4 </args>
      <args> s[0] 4 s[17] 1 </args>
      <args> s[1] 5 s[2] 4 </args>
      <args> s[1] 5 s[5] 3 </args>
      <args> s[1] 5 s[10] 3 </args>
      <args> s[1] 5 s[11] 3 </args>
      <args> s[1] 5 s[14] 1 </args>
      <args> s[1] 5 s[17] 1 </args>
      <args> s[1] 5 s[18] 1 </args>
      <args> s[1] 5 s[21] 1 </args>
      <args> s[2] 4 s[5] 3 </args>
      <args> s[2] 4 s[10] 3 </args>
      <args> s[2] 4 s[11] 3 </args>
      <args> s[2] 4 s[14] 1 </args>
      <args> s[2] 4 s[15] 4 </args>
      <args> s[2] 4 s[17] 1 </args>
      <args> s[2] 4 s[18] 1 </args>
      <args> s[2] 4 s[21] 1 </args>
      <args> s[5] 3 s[10] 3 </args>
      <args> s[5] 3 s[11] 3 </args>
      <args> s[5] 3 s[14] 1 </args>
      <args> s[5] 3 s[15] 4 </args>
      <args> s[5] 3 s[17] 1 </args>
      <args> s[5] 3 s[18] 1 </args>
      <args> s[5] 3 s[21] 1 </args>
      <args> s[10] 3 s[14] 1 </args>
      <args> s[10] 3 s[15] 4 </args>
      <args> s[10] 3 s[17] 1 </args>
      <args> s[10] 3 s[18] 1 </args>
      <args> s[10] 3 s[21] 1 </args>
      <args> s[11] 3 s[14] 1 </args>
      <args> s[11] 3 s[17] 1 </args>
      <args> s[11] 3 s[18] 1 </args>
      <args> s[11] 3 s[21] 1 </args>
      <args> s[14] 1 s[15] 4 </args>
      <args> s[14] 1 s[17] 1 </args>
      <args> s[14] 1 s[18] 1 </args>
      <args> s[14] 1 s[21] 1 </args>
      <args> s[15] 4 s[17] 1 </args>
      <args> s[15] 4 s[18] 1 </args>
      <args> s[15] 4 s[21] 1 </args>
      <args> s[17] 1 s[18] 1 </args>
      <args> s[17] 1 s[21] 1 </args>
      <args> s[18] 1 s[21] 1 </args>
    </group>
    <cumulative>
      <origins> s[0..2] s[5] s[10..11] s[14..15] s[17..18] s[21] </origins>
      <lengths> 4 5 4 3x3 1 4 1x3 </lengths>
      <heights> 1x11 </heights>
      <condition> (le,1) </condition>
    </cumulative>
    <cumulative>
      <origins> s[0] s[2..4] s[6..9] s[12..13] s[16] s[19..20] s[22..24] </origins>
      <lengths> 4x3 2 5 2 2 1 4 3x3 1 2 2 5 </lengths>
      <heights> 1x16 </heights>
      <condition> (le,2) </condition>
    </cumulative>
    <group>
      <intension> le(add(%0,%1),z) </intension>
      <args> s[17] 1 </args>
      <args> s[18] 1 </args>
      <args> s[19] 3 </args>
      <args> s[23] 2 </args>
      <args> s[24] 5 </args>
    </group>
  </constraints>
  <objectives>
    <minimize> z </minimize>
  </objectives>
</instance>
